GLPSOL--GLPK LP/MIP Solver 5.0
Parameter(s) specified in the command line:
 --lp ../modeles/15_94.lp --log 15_94.log
Reading problem data from '../modeles/15_94.lp'...
1471 rows, 2850 columns, 9915 non-zeros
1410 integer variables, all of which are binary
4342 lines were read
GLPK Integer Optimizer 5.0
1471 rows, 2850 columns, 9915 non-zeros
1410 integer variables, all of which are binary
Preprocessing...
1410 constraint coefficient(s) were reduced
1471 rows, 2835 columns, 9900 non-zeros
1410 integer variables, all of which are binary
Scaling...
 A: min|aij| =  1.811e-03  max|aij| =  4.000e+00  ratio =  2.209e+03
GM: min|aij| =  1.459e-01  max|aij| =  6.856e+00  ratio =  4.700e+01
EQ: min|aij| =  2.128e-02  max|aij| =  1.000e+00  ratio =  4.700e+01
2N: min|aij| =  1.449e-02  max|aij| =  1.704e+00  ratio =  1.177e+02
Constructing initial basis...
Size of triangular part is 1471
Solving LP relaxation...
GLPK Simplex Optimizer 5.0
1471 rows, 2835 columns, 9900 non-zeros
      0: obj =   3.000000000e+01 inf =   7.450e+01 (31)
    194: obj =  -4.759800589e-01 inf =   0.000e+00 (0)
*   591: obj =  -3.869885434e+00 inf =   1.614e-14 (0)
OPTIMAL LP SOLUTION FOUND
Integer optimization begins...
Long-step dual simplex will be used
+   591: mip =     not found yet >=              -inf        (1; 0)
+   594: >>>>>  -3.869885434e+00 >=  -3.869885434e+00 < 0.1% (3; 0)
+   594: mip =  -3.869885434e+00 >=     tree is empty   0.0% (0; 5)
INTEGER OPTIMAL SOLUTION FOUND
Time used:   0.1 secs
Memory used: 4.3 Mb (4506619 bytes)
